benchmark_str_length/p1_10_5-0.dzn
Alphabet = {A,C,G,T};
ns = 10;
nc = 5;
sl = 5;
neighbours = [| I(C),I(C),I(C),I(A),I(A) | I(C),I(A),I(C),I(A),I(C) | I(A),I(C),I(A),I(A),I(A) | I(A),I(G),I(A),I(A),I(A) | I(C),I(A),I(A),I(A),I(C) | I(C),I(C),I(A),I(C),I(A) | I(A),I(C),I(A),I(C),I(A) | I(A),I(A),I(A),I(A),I(G) | I(G),I(A),I(A),I(C),I(C) | I(A),I(C),I(C),I(C),I(C) |];
