benchmark_str_length/p1_10_5-0.txt
{
	"num_strings": 10,
	"alphabet": "ACGT",
	"strings": [
		"CCCAA",
		"CACAC",
		"ACAAA",
		"AGAAA",
		"CAAAC",
		"CCACA",
		"ACACA",
		"AAAAG",
		"GAACC",
		"ACCCC"
	],
	"str_length":[5,5,5,5,5,5,5,5,5,5]
}